
Gurobi 12.0.2 (win64) logging started Fri Jun  6 10:10:54 2025

Set parameter LogFile to value "C:\Ioana\_uni\honours\slp\algorithm\Main_files\results\others\prox_tubules_new\Task_026_Sample001_irr_gurobi.log"
Gurobi Optimizer version 12.0.2 build v12.0.2rc0 (win64 - Windows 11.0 (26100.2))

CPU model: Intel(R) Core(TM) Ultra 5 125H, instruction set [SSE2|AVX|AVX2]
Thread count: 14 physical cores, 18 logical processors, using up to 18 threads

Non-default parameters:
TimeLimit  2200

Optimize a model with 47658 rows, 34796 columns and 147843 nonzeros
Model fingerprint: 0x9ea0d9d9
Variable types: 17402 continuous, 17394 integer (17394 binary)
Coefficient statistics:
  Matrix range     [1e-04, 8e+04]
  Objective range  [1e-04, 1e+01]
  Bounds range     [1e+00, 1e+03]
  RHS range        [1e+00, 1e+00]
Presolve removed 31248 rows and 21834 columns
Presolve time: 0.31s
Presolved: 16410 rows, 12962 columns, 54595 nonzeros
Variable types: 6415 continuous, 6547 integer (6547 binary)

Root relaxation: objective 1.030963e-03, 223 iterations, 0.02 seconds (0.02 work units)

    Nodes    |    Current Node    |     Objective Bounds      |     Work
 Expl Unexpl |  Obj  Depth IntInf | Incumbent    BestBd   Gap | It/Node Time

     0     0    0.00103    0    4          -    0.00103      -     -    0s
H    0     0                       1.0309629    0.00103   100%     -    0s

Cutting planes:
  Gomory: 1
  Cover: 1
  MIR: 5
  Flow cover: 5
  Flow path: 2
  Relax-and-lift: 1

Explored 1 nodes (223 simplex iterations) in 0.59 seconds (0.64 work units)
Thread count was 18 (of 18 available processors)

Solution count 1: 1.03096 

Optimal solution found (tolerance 1.00e-04)
Best objective 1.030962858491e+00, best bound 1.030962858491e+00, gap 0.0000%
